args: ../partial/bp/M7.cnf cubes/M7.cubes 100 50 25
iteration: 0
running icadical
lim: 100
refuted: 2677, progress: 2677/9675

iteration: 1
running icadical
lim: 100
refuted: 1925, progress: 4602/9675

iteration: 2
running icadical
lim: 100
refuted: 4703, progress: 9305/9675

iteration: 3
running icadical
lim: 100
refuted: 370, progress: 9675/9675

c --- [ banner ] -------------------------------------------------------------
c 
c CaDiCaL Radically Simplified CDCL SAT Solver
c Copyright (c) 2016-2019 Armin Biere, JKU Linz
c 
c Version 1.2.1 92d72896c49b30ad2d50c8e1061ca0681cd23e60
c g++ (GCC) 4.8.5 20150623 (Red Hat 4.8.5-39) -Wall -Wextra -O3 -DNDEBUG -std=c++0x
c Thu Jan 30 22:37:32 EST 2020 Linux lov6.int.autonlab.org 3.10.0-1062.4.1.el7.x86_64 x86_64
c 
c --- [ parsing input ] ------------------------------------------------------
c 
c reading DIMACS file from '<stdin>' (use '-h' for a list of common options)
c found 'p cnf 570 8690' header
c parsed 18365 clauses in 0.04 seconds process time
c disconnecting from '<stdin>'
c after reading 268679 bytes 0.3 MB
c 
c --- [ options ] ------------------------------------------------------------
c 
c   --report=false                 (different from default 'true')
c 
c --- [ solving ] ------------------------------------------------------------
c 
c 
c --- [ result ] -------------------------------------------------------------
c 
s UNSATISFIABLE
c 
c --- [ run-time profiling ] -------------------------------------------------
c 
c process time taken by individual solving procedures
c (percentage relative to process time for solving)
c 
c         0.00   77.73% search
c         0.00   41.05% unstable
c         0.00   32.75% lucky
c         0.00    0.00% simplify
c   =================================
c         0.00    0.63% solve
c 
c last line shows process time for solving
c (percentage relative to total process time)
c 
c --- [ statistics ] ---------------------------------------------------------
c 
c conflicts:                     3     13100.44    per second
c decisions:                     2      8733.62    per second
c fixed:                       289        50.70 %  of all variables
c learned:                       2        66.67 %  per conflict
c minimized:                     0         0.00 %  learned literals
c propagations:                 46         0.20 M  per second
c 
c seconds are measured in process time for solving
c 
c --- [ resources ] ----------------------------------------------------------
c 
c total process time since initialization:         0.04    seconds
c total real time since initialization:            0.05    seconds
c maximum resident set size of process:            3.05    MB
c 
c --- [ shutting down ] ------------------------------------------------------
c 
c exit 20

real	0m5.299s
user	1m1.312s
sys	0m6.772s
